(set-logic ALL)
(declare-fun seed0_~a1~0 () Int)
(declare-fun |seed0_old(~a1~0)| () Int)
(declare-fun |seed0_old(~a10~0)| () Int)
(declare-fun seed0_Q4_v_prenex_249 () Int)
(assert (and (or (forall ((seed0_Q1_v_prenex_245 Int)) (or (or (not (<= (+ (div seed0_Q1_v_prenex_245 5) 449582) seed0_~a1~0)) (not (<= |seed0_old(~a1~0)| seed0_Q1_v_prenex_245)) (not (< 218 seed0_Q1_v_prenex_245)) (not (<= 0 seed0_Q1_v_prenex_245))) (not (<= |seed0_old(~a10~0)| 2)))) (or (= (- |seed0_old(~a1~0)| seed0_~a1~0) (div seed0_~a1~0 seed0_Q4_v_prenex_249)) (distinct (- seed0_~a1~0 seed0_~a1~0) (+ |seed0_old(~a1~0)| |seed0_old(~a10~0)|)))) (or (forall ((seed0_Q2_v_prenex_247 Int)) (or (not (<= |seed0_old(~a10~0)| 3)) (or (not (<= (+ (div seed0_Q2_v_prenex_247 5) 449582) seed0_~a1~0)) (not (= 0 (mod seed0_Q2_v_prenex_247 5))) (not (<= |seed0_old(~a1~0)| seed0_Q2_v_prenex_247)) (not (<= (+ seed0_Q2_v_prenex_247 13) 0))))) (not (= (div |seed0_old(~a1~0)| |seed0_old(~a1~0)|) (mod |seed0_old(~a1~0)| seed0_Q4_v_prenex_249)))) (or (forall ((seed0_Q3_v_~a1~0_484 Int)) (or (or (not (<= |seed0_old(~a1~0)| seed0_Q3_v_~a1~0_484)) (not (<= 0 seed0_Q3_v_~a1~0_484)) (not (<= seed0_Q3_v_~a1~0_484 218)) (not (< 38 seed0_Q3_v_~a1~0_484)) (not (<= (+ (div seed0_Q3_v_~a1~0_484 5) 449582) seed0_~a1~0))) (not (<= |seed0_old(~a10~0)| 2)))) (and (= (+ |seed0_old(~a1~0)| |seed0_old(~a1~0)|) (* seed0_Q4_v_prenex_249 seed0_Q4_v_prenex_249)) (distinct (mod |seed0_old(~a1~0)| seed0_Q4_v_prenex_249) (- seed0_Q4_v_prenex_249 seed0_~a1~0)))) (or (and (< seed0_Q4_v_prenex_249  0) (not (= 0 (mod seed0_Q4_v_prenex_249  5))) (<= |seed0_old(~a1~0)| seed0_Q4_v_prenex_249 ) (<= (+ (div seed0_Q4_v_prenex_249  5) 449583) seed0_~a1~0) (<= (+ seed0_Q4_v_prenex_249  13) 0)) (or (>= (div |seed0_old(~a10~0)| |seed0_old(~a1~0)|) (+ seed0_~a1~0 seed0_Q4_v_prenex_249)) (distinct (div seed0_Q4_v_prenex_249 |seed0_old(~a10~0)|) (div seed0_Q4_v_prenex_249 seed0_Q4_v_prenex_249)))) (or (<= |seed0_old(~a10~0)| 3) (=> (<= (mod seed0_~a1~0 |seed0_old(~a1~0)|) (+ seed0_Q4_v_prenex_249 |seed0_old(~a10~0)|)) (distinct (mod seed0_Q4_v_prenex_249 seed0_~a1~0) (+ |seed0_old(~a10~0)| seed0_Q4_v_prenex_249))))))
(check-sat)
(exit)